Problem:    AirplaneLandingProblem
Rows:       15
Columns:    6
Non-zeros:  23
Status:     OPTIMAL
Objective:  z = 2.25 (MAXimum)

   No.   Row name   St   Activity     Lower bound   Upper bound    Marginal
------ ------------ -- ------------- ------------- ------------- -------------
     1 z            B           2.25                             
     2 con1         NU             0                          -0          0.25 
     3 con2         NU             0                          -0          0.25 
     4 con3         NU             0                          -0          0.25 
     5 con4         NU             0                          -0          0.25 
     6 con5         NL             1             1                       -0.25 
     7 con6         B              1                           2 
     8 con7         B           3.25             3               
     9 con8         B           3.25                           4 
    10 con9         B            5.5             5               
    11 con10        B            5.5                           6 
    12 con11        B           7.75             7               
    13 con12        B           7.75                           8 
    14 con13        B             10             9               
    15 con14        NU            10                          10          0.25 

   No. Column name  St   Activity     Lower bound   Upper bound    Marginal
------ ------------ -- ------------- ------------- ------------- -------------
     1 x1           B              1             0               
     2 x2           B           3.25             0               
     3 x3           B            5.5             0               
     4 x4           B           7.75             0               
     5 x5           B             10             0               
     6 d            B           2.25             0               

Karush-Kuhn-Tucker optimality conditions:

KKT.PE: max.abs.err = 0.00e+00 on row 0
        max.rel.err = 0.00e+00 on row 0
        High quality

KKT.PB: max.abs.err = 0.00e+00 on row 0
        max.rel.err = 0.00e+00 on row 0
        High quality

KKT.DE: max.abs.err = 0.00e+00 on column 0
        max.rel.err = 0.00e+00 on column 0
        High quality

KKT.DB: max.abs.err = 0.00e+00 on row 0
        max.rel.err = 0.00e+00 on row 0
        High quality

End of output
